proyfinal/src/viki/013/experimentInOfficeAgust.take6.output/4e156e22-79f2-4773-a81f-8a7e11690d67.als.dat
{'cnf.clauses': '118081',
 'cnf.totvars': '69608',
 'conflict literals': '7',
 'conflicts': '6',
 'decisions': '663',
 'memused.mb': '14.67',
 'outcome': 'UNSAT',
 'propagations': '21163',
 'restarts': '1',
 'solver.msecs': 35,
 'task.msecs': 87}
