proyfinal/src/viki/013/experimentInOfficeAgust.take6.output/4e156e22-79f2-4773-a81f-8a7e11690d67.als.out
Reading from standard input... Use '--help' for help.
============================[ Problem Statistics ]=============================
|                                                                             |
|  Number of variables:         69608                                         |
|  Number of clauses:          118081                                         |
|  Parse time:                   0.03 s                                       |
|                                                                             |
============================[ Search Statistics ]==============================
| Conflicts |          ORIGINAL         |          LEARNT          | Progress |
|           |    Vars  Clauses Literals |    Limit  Clauses Lit/Cl |          |
===============================================================================
===============================================================================
restarts              : 1
conflicts             : 6              (171 /sec)
decisions             : 663            (0.00 % random) (18905 /sec)
propagations          : 21163          (603433 /sec)
conflict literals     : 7              (0.00 % deleted)
Memory used           : 14.67 MB
CPU time              : 0.035071 s

UNSATISFIABLE
